\ Model Job_Scheduling_copy
\ LP format - for model browsing. Use MPS format to capture full model detail.
Minimize
 
Subject To
 R3657: x[9,2,1] + x[9,2,2] + x[9,2,3] + x[9,2,4] + x[9,2,5] = 1
 R3675: x[9,2,1] = 0
 R3676: x[9,2,2] = 0
 R3677: x[9,2,3] = 0
 R3678: x[9,2,4] = 0
 R3679: x[9,2,5] = 0
Bounds
Binaries
 x[9,2,1] x[9,2,2] x[9,2,3] x[9,2,4] x[9,2,5]
End
